6370341334805993265501,8,1,2,06,3,1,2,01,13,1,2,05,14,1,2,05,8,1,2,013,7,1,2,01,8,1,2,015,12,1,2,010,10,1,2,07,14,1,2,04,5,1,2,02,12,1,2,010,7,1,2,010,15,1,2,010,10,1,2,01,3,1,2,01,6,1,2,08,10,1,2,011,3,1,2,015,9,1,2,013,2,1,2,09,6,1,2,011,13,1,2,06,9,1,2,014,5,1,2,09,4,1,2,014,11,1,2,014,12,1,2,04,10,1,2,09,8,1,2,03,11,1,2,02,1,1,2,013,10,1,2,02,11,1,2,012,15,1,2,04,12,1,2,05,9,1,2,04,4,1,2,015,4,1,2,09,3,1,2,01,8,1,2,08,8,1,2,06,14,1,2,014,14,1,2,09,14,1,2,07,13,1,2,013,4,1,2,011,14,1,2,09,7,1,2,012,5,1,2,0